50
21931

577 434
192 324
674 963
302 527
663 47
654 312
150 756
473 571
493 847
279 863
139 951
160 151
215 890
447 831
614 19
861 71
206 294
565 213
753 114
112 798
567 16
264 329
461 846
527 611
422 92
413 5
940 560
717 363
141 808
110 477
698 161
541 249
525 297
886 540
38 725
882 426
188 408
545 11
601 435
906 703
32 722
864 321
823 674
958 769
268 327
213 632
387 367
685 590
77 878
917 836
